NAME: instance_709
TYPE: TSP
DIMENSION: 20
EDGE_WEIGHT_TYPE: EUC_2D
NODE_COORD_SECTION
0 24.33 19.04
1 62.35 72.83
2 5.82 62.20
3 3.76 93.01
4 66.98 95.97
5 83.46 95.45
6 95.09 58.98
7 16.33 67.57
8 59.56 81.19
9 16.69 99.17
10 72.33 64.81
11 89.21 87.18
12 29.92 59.23
13 30.16 5.98
14 57.21 91.96
15 67.32 28.44
16 53.98 44.73
17 36.40 15.47
18 98.68 71.06
19 99.51 23.82
EOF
